Pt Pd Pt Pd Pt Pd Pt Pd Pt Pd Pt Pd Pt Pd Pt Pd Pt Pd Pt Pd Pt 
 1.0000000000000000
    11.0308657865101427    0.0000000000000000    0.0000000000000000
     0.0000000000000000    9.5530099968543940    0.0000000000000000
     0.0000000000000000    0.0000000000000000   18.5033320996790778
 Pt  Pd  Pt  Pd  Pt  Pd  Pt  Pd  Pt  Pd  Pt  Pd  Pt  Pd  Pt  Pd  Pt  Pd  Pt  Pd  Pt 
   3   1   3   1   3   3   2   2   2   1   1   1   2   1   4   2   9   1   3   1   2
Cartesian
  1.3788582233137678  0.7960841664045328  1.0000000000000000
  4.1365746699413037  0.7960841664045328  1.0000000000000000
  6.8942911165688390  0.7960841664045328  1.0000000000000000
  9.6520075631963742  0.7960841664045328  1.0000000000000000
  0.0000000000000000  3.1843366656181313  1.0000000000000000
  2.7577164466275357  3.1843366656181313  1.0000000000000000
  5.5154328932550714  3.1843366656181313  1.0000000000000000
  8.2731493398826075  3.1843366656181313  1.0000000000000000
  1.3788582233137678  5.5725891648317303  1.0000000000000000
  4.1365746699413037  5.5725891648317303  1.0000000000000000
  6.8942911165688390  5.5725891648317303  1.0000000000000000
  9.6520075631963742  5.5725891648317303  1.0000000000000000
  0.0000000000000000  7.9608416640453283  1.0000000000000000
  2.7577164466275357  7.9608416640453283  1.0000000000000000
  5.5154328932550714  7.9608416640453283  1.0000000000000000
  8.2731493398826075  7.9608416640453283  1.0000000000000000
  0.0000000000000000  1.5921683328090657  3.2516660498395407
  2.7577164466275357  1.5921683328090657  3.2516660498395407
  5.5154328932550714  1.5921683328090657  3.2516660498395407
  8.2731493398826075  1.5921683328090657  3.2516660498395407
  1.3788582233137678  3.9804208320226637  3.2516660498395407
  4.1365746699413037  3.9804208320226637  3.2516660498395407
  6.8942911165688390  3.9804208320226637  3.2516660498395407
  9.6520075631963742  3.9804208320226637  3.2516660498395407
  0.0000000000000000  6.3686733312362627  3.2516660498395407
  2.7577164466275357  6.3686733312362627  3.2516660498395407
  5.5154328932550714  6.3686733312362627  3.2516660498395407
  8.2731493398826075  6.3686733312362627  3.2516660498395407
  1.3788582233137678  8.7569258304498607  3.2516660498395407
  4.1365746699413037  8.7569258304498607  3.2516660498395407
  6.8942911165688390  8.7569258304498607  3.2516660498395407
  9.6520075631963742  8.7569258304498607  3.2516660498395407
  0.0000000000000000  0.0000000000000000  5.5033320996790813
  2.7577164466275357  0.0000000000000000  5.5033320996790813
  5.5154328932550714  0.0000000000000000  5.5033320996790813
  8.2731493398826075  0.0000000000000000  5.5033320996790813
  1.3788582233137678  2.3882524992135985  5.5033320996790813
  4.1365746699413037  2.3882524992135985  5.5033320996790813
  6.8942911165688390  2.3882524992135985  5.5033320996790813
  9.6520075631963742  2.3882524992135985  5.5033320996790813
  0.0000000000000000  4.7765049984271970  5.5033320996790813
  2.7577164466275357  4.7765049984271970  5.5033320996790813
  5.5154328932550714  4.7765049984271970  5.5033320996790813
  8.2731493398826075  4.7765049984271970  5.5033320996790813
  1.3788582233137678  7.1647574976407959  5.5033320996790813
  4.1365746699413037  7.1647574976407959  5.5033320996790813
  6.8942911165688390  7.1647574976407959  5.5033320996790813
  9.6520075631963742  7.1647574976407959  5.5033320996790813
