Pt  O 
 1.0000000000000000
     8.9675659999999997    0.0000000000000000    0.0000000000000000
     0.0000000000000000    8.9675659999999997    0.0000000000000000
     0.0000000000000000    0.0000000000000000   26.3304032499999963
 Pt  O  
  24  40
Cartesian
  0.0000000000000000  0.0000000000000000  0.0999999999999996
  0.0000000000000000  4.4837829999999999  0.0999999999999996
  4.4837829999999999  0.0000000000000000  0.0999999999999996
  4.4837829999999999  4.4837829999999999  0.0999999999999996
  2.2418914999999999  2.2418914999999999  2.3418914999999991
  2.2418914999999999  6.7256745000000002  2.3418914999999991
  6.7256745000000002  2.2418914999999999  2.3418914999999991
  6.7256745000000002  6.7256745000000002  2.3418914999999991
  0.0000000000000000  0.0000000000000000  4.5837829999999986
  0.0000000000000000  4.4837829999999999  4.5837829999999986
  4.4837829999999999  0.0000000000000000  4.5837829999999986
  4.4837829999999999  4.4837829999999999  4.5837829999999986
  2.2418914999999999  2.2418914999999999  6.8256744999999981
  2.2418914999999999  6.7256745000000002  6.8256744999999981
  6.7256745000000002  2.2418914999999999  6.8256744999999981
  6.7256745000000002  6.7256745000000002  6.8256744999999981
  0.0000000000000000  0.0000000000000000  9.0675659999999976
  0.0000000000000000  4.4837829999999999  9.0675659999999976
  4.4837829999999999  0.0000000000000000  9.0675659999999976
  4.4837829999999999  4.4837829999999999  9.0675659999999976
  2.2418914999999999  2.2418914999999999 11.3094574999999953
  2.2418914999999999  6.7256745000000002 11.3094574999999953
  6.7256745000000002  2.2418914999999999 11.3094574999999953
  6.7256745000000002  6.7256745000000002 11.3094574999999953
  1.1209457500000000  3.3628372500000001  1.2209457500000003
  3.3628372500000001  1.1209457500000000  1.2209457500000003
  1.1209457500000000  7.8466202500000000  1.2209457500000003
  3.3628372500000001  5.6047287499999996  1.2209457500000003
  5.6047287499999996  3.3628372500000001  1.2209457500000003
  7.8466202500000000  1.1209457500000000  1.2209457500000003
  5.6047287499999996  7.8466202500000000  1.2209457500000003
  7.8466202500000000  5.6047287499999996  1.2209457500000003
  1.1209457500000000  1.1209457500000000  3.4628372499999980
  3.3628372500000001  3.3628372500000001  3.4628372499999980
  1.1209457500000000  5.6047287499999996  3.4628372499999980
  3.3628372500000001  7.8466202500000000  3.4628372499999980
  5.6047287499999996  1.1209457500000000  3.4628372499999980
  7.8466202500000000  3.3628372500000001  3.4628372499999980
  5.6047287499999996  5.6047287499999996  3.4628372499999980
  7.8466202500000000  7.8466202500000000  3.4628372499999980
  1.1209457500000000  3.3628372500000001  5.7047287499999975
  3.3628372500000001  1.1209457500000000  5.7047287499999975
  1.1209457500000000  7.8466202500000000  5.7047287499999975
  3.3628372500000001  5.6047287499999996  5.7047287499999975
  5.6047287499999996  3.3628372500000001  5.7047287499999975
  7.8466202500000000  1.1209457500000000  5.7047287499999975
  5.6047287499999996  7.8466202500000000  5.7047287499999975
  7.8466202500000000  5.6047287499999996  5.7047287499999975
  1.1209457500000000  1.1209457500000000  7.9466202499999969
  3.3628372500000001  3.3628372500000001  7.9466202499999969
  1.1209457500000000  5.6047287499999996  7.9466202499999969
  3.3628372500000001  7.8466202500000000  7.9466202499999969
  5.6047287499999996  1.1209457500000000  7.9466202499999969
  7.8466202500000000  3.3628372500000001  7.9466202499999969
  5.6047287499999996  5.6047287499999996  7.9466202499999969
  7.8466202500000000  7.8466202500000000  7.9466202499999969
  1.1209457500000000  3.3628372500000001 10.1885117499999946
  3.3628372500000001  1.1209457500000000 10.1885117499999946
  1.1209457500000000  7.8466202500000000 10.1885117499999946
  3.3628372500000001  5.6047287499999996 10.1885117499999946
  5.6047287499999996  3.3628372500000001 10.1885117499999946
  7.8466202500000000  1.1209457500000000 10.1885117499999946
  5.6047287499999996  7.8466202500000000 10.1885117499999946
  7.8466202500000000  5.6047287499999996 10.1885117499999946
